c Generated map
c Size: 10 * 10, weights in range: 1 to 10, walls: True, with ratio 0.1
c dim 6 of 6
c
p sp 100 144
c graph contains 100 nodes and 144 arcs
c
a 1 2 10
a 2 1 10
a 2 12 1
a 12 2 1
a 2 3 10
a 3 2 10
a 3 13 5
a 13 3 5
a 3 4 6
a 4 3 6
a 4 14 4
a 14 4 4
a 4 5 10
a 5 4 10
a 5 15 7
a 15 5 7
a 5 6 8
a 6 5 8
a 6 16 1
a 16 6 1
a 6 7 8
a 7 6 8
a 7 17 6
a 17 7 6
a 7 8 1
a 8 7 1
a 8 18 5
a 18 8 5
a 8 9 4
a 9 8 4
a 9 19 10
a 19 9 10
a 9 10 6
a 10 9 6
a 10 20 6
a 20 10 6
a 12 22 9
a 22 12 9
a 12 13 5
a 13 12 5
a 13 23 7
a 23 13 7
a 13 14 9
a 14 13 9
a 14 24 3
a 24 14 3
a 14 15 4
a 15 14 4
a 15 25 8
a 25 15 8
a 15 16 3
a 16 15 3
a 16 26 1
a 26 16 1
a 16 17 3
a 17 16 3
a 17 27 9
a 27 17 9
a 17 18 8
a 18 17 8
a 18 28 2
a 28 18 2
a 18 19 7
a 19 18 7
a 19 29 2
a 29 19 2
a 19 20 2
a 20 19 2
a 20 30 6
a 30 20 6
a 21 31 5
a 31 21 5
a 21 22 2
a 22 21 2
a 22 32 10
a 32 22 10
a 22 23 7
a 23 22 7
a 23 33 7
a 33 23 7
a 23 24 9
a 24 23 9
a 24 25 4
a 25 24 4
a 25 26 6
a 26 25 6
a 26 36 9
a 36 26 9
a 26 27 3
a 27 26 3
a 27 37 8
a 37 27 8
a 27 28 8
a 28 27 8
a 28 29 1
a 29 28 1
a 29 39 5
a 39 29 5
a 29 30 7
a 30 29 7
a 30 40 6
a 40 30 6
a 31 41 9
a 41 31 9
a 31 32 6
a 32 31 6
a 32 42 5
a 42 32 5
a 32 33 3
a 33 32 3
a 33 43 7
a 43 33 7
a 36 46 4
a 46 36 4
a 36 37 8
a 37 36 8
a 39 49 8
a 49 39 8
a 39 40 1
a 40 39 1
a 40 50 7
a 50 40 7
a 41 51 1
a 51 41 1
a 41 42 8
a 42 41 8
a 42 52 6
a 52 42 6
a 42 43 7
a 43 42 7
a 43 53 7
a 53 43 7
a 43 44 3
a 44 43 3
a 44 54 10
a 54 44 10
a 48 58 3
a 58 48 3
a 48 49 3
a 49 48 3
a 49 59 8
a 59 49 8
a 49 50 7
a 50 49 7
a 50 60 2
a 60 50 2
a 51 61 10
a 61 51 10
a 51 52 8
a 52 51 8
a 52 62 6
a 62 52 6
a 52 53 7
a 53 52 7
a 53 63 5
a 63 53 5
a 53 54 1
a 54 53 1
a 54 64 10
a 64 54 10
a 54 55 7
a 55 54 7
a 55 65 7
a 65 55 7
a 57 67 3
a 67 57 3
a 57 58 9
a 58 57 9
a 58 68 5
a 68 58 5
a 58 59 3
a 59 58 3
a 59 69 10
a 69 59 10
a 59 60 8
a 60 59 8
a 60 70 6
a 70 60 6
a 61 71 4
a 71 61 4
a 61 62 7
a 62 61 7
a 62 72 8
a 72 62 8
a 62 63 9
a 63 62 9
a 63 73 1
a 73 63 1
a 63 64 7
a 64 63 7
a 64 74 2
a 74 64 2
a 64 65 6
a 65 64 6
a 65 75 2
a 75 65 2
a 65 66 2
a 66 65 2
a 66 67 4
a 67 66 4
a 67 77 2
a 77 67 2
a 67 68 7
a 68 67 7
a 68 78 3
a 78 68 3
a 68 69 7
a 69 68 7
a 69 79 7
a 79 69 7
a 69 70 1
a 70 69 1
a 71 81 8
a 81 71 8
a 71 72 7
a 72 71 7
a 72 82 2
a 82 72 2
a 72 73 7
a 73 72 7
a 73 83 7
a 83 73 7
a 73 74 10
a 74 73 10
a 74 84 7
a 84 74 7
a 74 75 9
a 75 74 9
a 75 85 3
a 85 75 3
a 77 87 6
a 87 77 6
a 77 78 1
a 78 77 1
a 78 79 8
a 79 78 8
a 79 89 4
a 89 79 4
a 81 91 9
a 91 81 9
a 81 82 7
a 82 81 7
a 82 92 4
a 92 82 4
a 82 83 9
a 83 82 9
a 83 93 10
a 93 83 10
a 83 84 9
a 84 83 9
a 84 94 9
a 94 84 9
a 84 85 6
a 85 84 6
a 85 95 9
a 95 85 9
a 85 86 9
a 86 85 9
a 86 96 5
a 96 86 5
a 86 87 5
a 87 86 5
a 87 97 2
a 97 87 2
a 89 99 3
a 99 89 3
a 89 90 4
a 90 89 4
a 90 100 5
a 100 90 5
a 91 92 8
a 92 91 8
a 92 93 5
a 93 92 5
a 93 94 10
a 94 93 10
a 94 95 3
a 95 94 3
a 95 96 3
a 96 95 3
a 96 97 3
a 97 96 3
a 97 98 2
a 98 97 2
a 98 99 3
a 99 98 3
a 99 100 7
a 100 99 7
